experiment/data/lkh-res/Vrp-Set-F-n72/Vrp-Set-F-n72-lkh/0.lkh1.vrp
NAME : 0
COMMENT : CVRP Instance
TYPE : CVRP
DIMENSION : 72
EDGE_WEIGHT_TYPE : EUC_2D
CAPACITY : 30000
NODE_COORD_SECTION
1	0	0
2	-1199	-599
3	-1499	-499
4	-99	-1799
5	200	-2099
6	-99	-1699
7	-899	-1199
8	200	-2199
9	100	-2099
10	700	-2499
11	-699	-1699
12	-1099	-499
13	-1399	-899
14	-1399	-799
15	-1099	-199
16	-1399	-499
17	-1499	-899
18	-1499	-799
19	-899	-599
20	-1399	-399
21	300	600
22	500	900
23	500	1000
24	200	800
25	100	900
26	100	1000
27	200	900
28	600	1400
29	500	1200
30	300	700
31	400	800
32	-599	100
33	-599	200
34	-799	-199
35	-699	200
36	-699	-299
37	-699	-199
38	-1999	1200
39	-1999	1300
40	-1199	1000
41	-1999	1500
42	-599	800
43	200	2100
44	200	2200
45	100	2100
46	-99	2400
47	100	2200
48	-199	2000
49	-199	2100
50	-399	1800
51	-399	1900
52	-499	1800
53	-499	2600
54	100	2300
55	-599	500
56	-599	600
57	-899	600
58	-899	700
59	-1199	500
60	-1199	600
61	-1099	300
62	-1099	400
63	-1399	400
64	-1399	500
65	-1499	400
66	-1499	500
67	-1599	700
68	-1599	800
69	-1499	1000
70	-1999	1000
71	-499	1900
72	-899	-1099
DEMAND_SECTION
1	0
2	7063
3	51
4	23
5	3074
6	349
7	1047
8	698
9	3001
10	31
11	1135
12	21611
13	57
14	51
15	551
16	179
17	6
18	528
19	2832
20	1514
21	889
22	2554
23	1215
24	1810
25	3050
26	4
27	1563
28	741
29	1532
30	709
31	1022
32	883
33	1689
34	10235
35	29
36	2894
37	450
38	411
39	207
40	496
41	1021
42	117
43	46
44	8
45	18
46	561
47	1877
48	3542
49	801
50	967
51	62
52	1366
53	230
54	4
55	12
56	145
57	7149
58	2250
59	383
60	134
61	1947
62	182
63	3934
64	468
65	18
66	133
67	2340
68	754
69	1264
70	806
71	3665
72	2452
DEPOT_SECTION
1
-1
EOF
