experiment/data/lkh-res/Vrp-Set-F-n72/Vrp-Set-F-n72-lkh/0.lkh1.tour
NAME : 0.24190.tour
COMMENT : Length = 24190
COMMENT : Found by LKH-3 [Keld Helsgaun] Tue Apr  9 01:55:25 2024
TYPE : TOUR
DIMENSION : 75
TOUR_SECTION
1
24
27
25
26
50
52
71
51
48
49
53
46
54
47
45
44
43
28
29
23
22
31
30
21
73
37
15
20
12
19
36
74
10
8
5
9
4
6
11
7
72
13
17
18
14
3
16
2
34
75
32
33
35
61
62
59
60
64
63
65
66
67
68
70
38
39
41
69
40
58
57
42
56
55
-1
EOF
